(set-info :source |
 Generated by Alive 0.1
 More info in N. P. Lopes, D. Menendez, S. Nagarakatte, J. Regehr.
 Provably Correct Peephole Optimizations with Alive. In PLDI'15.
|)

(set-info :status unknown)
(declare-fun %Y () (_ BitVec 20))
(declare-fun %X () (_ BitVec 20))
(assert
 (let (($x472519 (and (distinct (bvurem ((_ zero_extend 5) %X) ((_ zero_extend 5) %Y)) ((_ zero_extend 5) (bvurem %X %Y))) true)))
 (let ((?x462166 ((_ zero_extend 5) %Y)))
 (let (($x462173 (and (distinct ?x462166 (_ bv0 25)) true)))
 (and $x462173 $x472519)))))
(check-sat)
